p cnf 313 1040
c ind 304 305 306 307 308 309 310 311 282 285 0
c ind 290 298 274 301 293 277 281 297 300 273 0
c ind 284 289 280 292 276 296 299 272 283 288 0
c ind 291 275 302 303 278 279 286 287 294 295 0
c ind 1 0
c ret 224 233 234 235 236 237 238 239 240 241 0
c ret 242 225 243 244 245 246 247 248 249 250 0
c ret 251 252 226 253 254 255 256 257 258 259 0
c ret 260 261 262 227 263 264 265 266 267 268 0
c ret 269 270 271 228 229 230 231 232 0
2 3 -125 -196 -205 0
-2 -3 0
-2 205 0
-2 196 0
-2 125 0
3 4 -46 -63 -76 0
-3 -4 0
-3 76 0
-3 63 0
-3 46 0
4 -5 23 -27 0
4 -5 20 -27 0
-4 27 0
-4 5 0
-4 -20 -23 0
5 9 13 0
5 6 16 0
5 9 16 0
5 6 13 0
-5 -6 -9 0
-5 -13 -16 0
6 -7 -8 266 290 0
6 -7 -8 -266 -290 0
-6 8 0
-6 -266 290 0
-6 7 0
-6 266 -290 0
7 -269 289 0
7 -265 293 0
7 -265 -269 0
7 289 293 0
-7 269 -293 0
-7 265 -289 0
8 -268 270 -292 294 0
8 268 -270 292 -294 0
8 268 270 292 294 0
8 -268 -270 -292 -294 0
-8 -268 292 0
-8 268 -292 0
-8 270 -294 0
-8 -270 294 0
9 -10 -11 264 288 0
9 -10 -11 -264 -288 0
-9 11 0
-9 -264 288 0
-9 10 0
-9 264 -288 0
10 -267 -289 0
10 265 291 0
10 265 -267 0
10 -289 291 0
-10 -265 289 0
-10 267 -291 0
11 -12 -271 -295 0
11 -12 271 295 0
-11 12 0
-11 -271 295 0
-11 271 -295 0
12 267 269 0
12 -291 -293 0
12 267 -293 0
12 269 -291 0
-12 -267 291 0
-12 -269 293 0
13 -14 -15 267 283 0
13 -14 -15 -267 -283 0
-13 15 0
-13 -267 283 0
-13 14 0
-13 267 -283 0
14 -268 282 0
14 -266 284 0
14 -266 -268 0
14 282 284 0
-14 268 -284 0
-14 266 -282 0
15 -265 269 -281 285 0
15 265 -269 281 -285 0
15 265 269 281 285 0
15 -265 -269 -281 -285 0
-15 -265 281 0
-15 265 -281 0
-15 269 -285 0
-15 -269 285 0
16 -17 -18 270 286 0
16 -17 -18 -270 -286 0
-16 18 0
-16 -270 286 0
-16 17 0
-16 270 -286 0
17 -271 -282 0
17 266 287 0
17 266 -271 0
17 -282 287 0
-17 -266 282 0
-17 271 -287 0
18 -19 -264 -280 0
18 -19 264 280 0
-18 19 0
-18 -264 280 0
-18 264 -280 0
19 268 271 0
19 -284 -287 0
19 268 -287 0
19 271 -284 0
-19 -268 284 0
-19 -271 287 0
20 -21 -22 267 307 0
20 -21 -22 -267 -307 0
-20 22 0
-20 -267 307 0
-20 21 0
-20 267 -307 0
21 -268 306 0
21 -266 308 0
21 -266 -268 0
21 306 308 0
-21 268 -308 0
-21 266 -306 0
22 -265 269 -305 309 0
22 265 -269 305 -309 0
22 265 269 305 309 0
22 -265 -269 -305 -309 0
-22 -265 305 0
-22 265 -305 0
-22 269 -309 0
-22 -269 309 0
23 -24 -25 270 310 0
23 -24 -25 -270 -310 0
-23 25 0
-23 -270 310 0
-23 24 0
-23 270 -310 0
24 -271 -306 0
24 266 311 0
24 266 -271 0
24 -306 311 0
-24 -266 306 0
-24 271 -311 0
25 -26 -264 -304 0
25 -26 264 304 0
-25 26 0
-25 -264 304 0
-25 264 -304 0
26 268 271 0
26 -308 -311 0
26 268 -311 0
26 271 -308 0
-26 -268 308 0
-26 -271 311 0
27 28 42 0
27 28 39 0
27 28 44 0
-27 -28 0
-27 -39 -42 -44 0
28 -29 -32 -33 -36 0
-28 36 0
-28 29 0
-28 33 0
-28 32 0
29 30 31 266 274 0
29 30 31 -266 -274 0
-29 -30 0
-29 -266 274 0
-29 -31 0
-29 266 -274 0
30 265 -273 0
-30 -265 0
-30 273 0
31 -271 279 0
-31 271 0
-31 -279 0
32 -268 270 -276 278 0
32 268 -270 276 -278 0
32 268 270 276 278 0
32 -268 -270 -276 -278 0
-32 -268 276 0
-32 268 -276 0
-32 270 -278 0
-32 -270 278 0
33 34 35 267 275 0
33 34 35 -267 -275 0
-33 -34 0
-33 -267 275 0
-33 -35 0
-33 267 -275 0
34 -269 277 0
-34 269 0
-34 -277 0
35 -265 273 0
-35 265 0
-35 -273 0
36 37 38 264 272 0
36 37 38 -264 -272 0
-36 -37 0
-36 -264 272 0
-36 -38 0
-36 264 -272 0
37 271 -279 0
-37 -271 0
-37 279 0
38 269 -277 0
-38 -269 0
-38 277 0
39 -40 -41 266 298 0
39 -40 -41 -266 -298 0
-39 41 0
-39 -266 298 0
-39 40 0
-39 266 -298 0
40 -269 297 0
40 -265 301 0
40 -265 -269 0
40 297 301 0
-40 269 -301 0
-40 265 -297 0
41 -268 270 -300 302 0
41 268 -270 300 -302 0
41 268 270 300 302 0
41 -268 -270 -300 -302 0
-41 -268 300 0
-41 268 -300 0
-41 270 -302 0
-41 -270 302 0
42 -43 -264 -296 0
42 -43 264 296 0
-42 43 0
-42 -264 296 0
-42 264 -296 0
43 -267 -297 0
43 265 299 0
43 265 -267 0
43 -297 299 0
-43 -265 297 0
-43 267 -299 0
44 -45 -271 -303 0
44 -45 271 303 0
-44 45 0
-44 -271 303 0
-44 271 -303 0
45 267 269 0
45 -299 -301 0
45 267 -301 0
45 269 -299 0
-45 -267 299 0
-45 -269 301 0
46 -47 -51 -57 306 0
46 47 -51 -57 -306 0
-46 57 0
-46 47 306 0
-46 51 0
-46 -47 -306 0
47 -48 -298 0
47 48 298 0
-47 -48 298 0
-47 48 -298 0
48 -49 -297 0
-48 297 0
-48 49 0
49 50 -296 0
-49 296 0
-49 -50 0
50 302 -303 0
50 -302 303 0
-50 -302 -303 0
-50 302 303 0
51 55 288 293 0
51 -55 -288 293 0
51 52 -55 -288 0
51 52 55 288 0
-51 -55 288 0
-51 55 -288 0
-51 -52 -293 0
52 -53 -285 0
52 53 285 0
-52 -53 285 0
-52 53 -285 0
53 -54 -283 -284 0
-53 283 0
-53 284 0
-53 54 0
54 286 -287 0
54 -286 287 0
-54 -286 -287 0
-54 286 287 0
55 56 -280 0
54 55 56 0
-55 -56 0
-54 -55 280 0
56 281 -289 0
56 -281 289 0
-56 -281 -289 0
-56 281 289 0
57 58 -282 0
57 -60 309 0
57 58 -60 0
57 -282 309 0
-57 -58 -309 0
-57 60 282 0
58 -59 -301 0
58 59 301 0
-58 -59 301 0
-58 59 -301 0
-50 59 -299 -300 0
-59 299 0
-59 300 0
50 -59 0
60 -61 -274 0
60 61 274 0
-60 -61 274 0
-60 61 -274 0
61 62 -272 -273 0
-61 272 0
-61 273 0
-61 -62 0
62 278 -279 0
62 -278 279 0
-62 -278 -279 0
-62 278 279 0
63 64 -67 74 285 0
63 -64 -67 74 -285 0
-63 -74 0
-63 64 -285 0
-63 67 0
-63 -64 285 0
64 -65 277 0
64 65 -277 0
-64 -65 -277 0
-64 65 277 0
65 -66 -276 0
-65 276 0
-65 66 0
-62 66 -275 0
-66 275 0
62 -66 0
50 67 -68 -70 0
-50 67 68 -70 0
-67 70 0
50 -67 68 0
-50 -67 -68 0
68 69 -299 0
68 69 307 0
-68 -69 0
-68 299 -307 0
69 300 -308 0
69 -300 308 0
-69 -300 -308 0
-69 300 308 0
70 71 -280 0
70 -73 -304 0
70 -280 -304 0
70 71 -73 0
-70 -71 304 0
-70 73 280 0
71 72 -296 0
50 71 72 0
-71 -72 0
-50 -71 296 0
72 297 -305 0
72 -297 305 0
-72 -297 -305 0
-72 297 305 0
-62 73 272 0
62 73 -272 0
-62 -73 -272 0
62 -73 272 0
74 -75 284 0
74 75 -284 0
-74 -75 -284 0
-74 75 284 0
-66 75 276 0
66 75 -276 0
-66 -75 -276 0
66 -75 276 0
76 -77 -105 -113 -120 0
-76 120 0
-76 77 0
-76 113 0
-76 105 0
77 -78 -87 -91 -95 0
-77 95 0
-77 78 0
-77 91 0
-77 87 0
-49 78 -79 -84 0
72 78 -79 -84 0
-78 84 0
-78 79 0
49 -72 -78 0
79 -80 -81 -82 -83 0
-79 83 0
-79 80 0
-79 82 0
-79 81 0
80 278 279 0
-80 -278 0
-80 -279 0
81 274 275 276 277 0
-81 -277 0
-81 -276 0
-81 -274 0
-81 -275 0
82 272 273 0
-82 -272 0
-82 -273 0
83 -302 303 -310 -311 0
83 -302 -303 310 -311 0
83 302 303 -310 311 0
83 302 -303 310 311 0
-83 -303 -310 0
-83 303 310 0
-83 302 -311 0
-83 -302 311 0
-54 56 84 0
56 84 -85 0
54 84 -85 -280 0
54 -84 85 0
-54 -56 -84 0
-56 -84 280 0
85 86 -283 0
85 86 291 0
-85 -86 0
-85 283 -291 0
86 284 -292 0
86 -284 292 0
-86 -284 -292 0
-86 284 292 0
86 87 88 -89 -90 0
-86 87 -88 -89 -90 0
86 87 88 89 90 0
-86 87 -88 89 90 0
86 -87 -88 0
-86 -87 88 0
-87 89 -90 0
-87 -89 90 0
88 -283 291 0
-88 283 0
-88 -291 0
89 292 -300 0
89 -292 300 0
-89 -292 -300 0
-89 292 300 0
90 -291 299 0
-90 291 0
-90 -299 0
69 91 92 93 94 0
-69 91 -92 93 94 0
-91 -93 0
-69 -91 92 0
-91 -94 0
69 -91 -92 0
92 -299 307 0
-92 299 0
-92 -307 0
93 294 -303 0
93 -278 -294 0
93 287 303 0
93 278 -287 0
-93 278 287 -294 -303 0
-93 -278 -287 294 303 0
94 286 302 0
94 279 -302 0
94 -286 295 0
94 -279 -295 0
-94 -279 286 295 -302 0
-94 279 -286 -295 302 0
95 -96 -99 -102 0
95 97 -99 -102 0
-95 102 0
-95 99 0
-95 96 -97 0
96 289 -297 0
96 -289 297 0
-96 -289 -297 0
-96 289 297 0
97 98 -288 0
-97 288 0
-97 -98 0
98 294 -295 0
98 -294 295 0
-98 -294 -295 0
-98 294 295 0
-56 99 101 0
98 99 100 0
99 100 101 0
-56 98 99 0
56 -99 -100 0
-98 -99 -101 0
54 100 -280 0
-100 280 0
-54 -100 0
89 101 -291 0
89 101 299 0
-89 -101 0
-101 291 -299 0
-98 102 -103 104 0
-101 102 -103 104 0
-102 103 0
-102 -104 0
98 101 -102 0
-72 96 103 0
49 -97 103 0
49 96 103 0
-72 -97 103 0
-49 72 -103 0
-96 97 -103 0
-54 -85 104 0
54 -104 0
85 -104 0
105 -106 -111 -112 -296 0
105 -106 -111 112 296 0
-105 106 0
-105 -112 296 0
-105 111 0
-105 112 -296 0
106 -107 108 -109 110 0
106 107 -108 109 -110 0
106 -107 108 109 -110 0
106 107 -108 -109 110 0
-106 -107 -108 0
-106 107 108 0
-106 109 110 0
-106 -109 -110 0
-100 107 -281 0
-107 281 0
100 -107 0
108 -282 -290 0
108 282 290 0
-108 282 -290 0
-108 -282 290 0
-97 109 -289 0
-109 289 0
97 -109 0
110 -290 -298 0
110 290 298 0
-110 290 -298 0
-110 -290 298 0
111 280 304 0
-71 73 111 0
73 111 304 0
-71 111 280 0
-73 -111 -280 0
71 -111 -304 0
96 98 112 0
96 112 -288 0
-96 -112 0
-98 -112 288 0
113 -114 118 -119 -283 0
113 -114 118 119 283 0
-113 -118 0
-113 -119 283 0
-113 114 0
-113 119 -283 0
-58 114 -115 0
114 -116 -309 0
114 -115 -309 0
-58 114 -116 0
-114 115 116 0
58 -114 309 0
115 272 -273 0
115 -272 273 0
-115 -272 -273 0
-115 272 273 0
116 -117 -281 0
116 117 281 0
-116 -117 281 0
-116 117 -281 0
-62 117 -272 0
-117 272 0
62 -117 0
-60 118 -282 0
-118 282 0
60 -118 0
-62 119 275 0
62 119 -275 0
-62 -119 -275 0
62 -119 275 0
120 -121 123 124 301 0
120 121 123 124 -301 0
-120 -123 0
-120 121 301 0
-120 -124 0
-120 -121 -301 0
121 -122 -293 0
121 122 293 0
-121 -122 293 0
-121 122 -293 0
-98 122 -291 -292 0
-122 291 0
-122 292 0
98 -122 0
52 123 293 0
-123 -293 0
-52 -123 0
-116 124 272 -273 0
-116 124 -272 273 0
116 -124 0
-124 272 273 0
-124 -272 -273 0
125 -126 -160 -166 -183 0
-125 183 0
-125 126 0
-125 166 0
-125 160 0
126 -127 -148 -151 -154 0
-126 154 0
-126 127 0
-126 151 0
-126 148 0
127 -128 140 -141 -146 0
127 -128 -140 -141 146 0
-127 141 0
-127 -140 -146 0
-127 128 0
-127 140 146 0
128 129 131 132 136 0
128 -129 -131 132 136 0
-128 -132 0
-128 -129 131 0
-128 -136 0
-128 129 -131 0
129 130 -240 0
-129 240 0
-129 -130 0
130 246 -247 0
130 -246 247 0
-130 -246 -247 0
-130 246 247 0
131 241 -249 0
131 -241 249 0
-131 -241 -249 0
-131 241 249 0
132 133 -135 0
-132 -133 0
-132 135 0
133 134 -248 0
-133 248 0
-133 -134 0
134 254 -255 0
134 -254 255 0
-134 -254 -255 0
-134 254 255 0
135 249 -257 0
135 -249 257 0
-135 -249 -257 0
-135 249 257 0
136 137 -139 0
-136 -137 0
-136 139 0
137 138 -232 0
-137 232 0
-137 -138 0
138 238 -239 0
138 -238 239 0
-138 -238 -239 0
-138 238 239 0
139 233 -241 0
139 -233 241 0
-139 -233 -241 0
-139 233 241 0
140 262 -263 0
140 -262 263 0
-140 -262 -263 0
-140 262 263 0
141 142 -144 -145 0
141 -143 144 145 0
141 142 144 145 0
141 -143 -144 -145 0
-141 144 -145 0
-141 -144 145 0
-141 -142 143 0
140 142 -256 0
-142 256 0
-140 -142 0
143 257 -265 0
143 -257 265 0
-143 -257 -265 0
-143 257 265 0
144 -243 251 0
-144 243 0
-144 -251 0
145 244 -252 0
145 -244 252 0
-145 -244 -252 0
-145 244 252 0
146 147 -259 0
146 147 267 0
-146 -147 0
-146 259 -267 0
147 260 -268 0
147 -260 268 0
-147 -260 -268 0
-147 260 268 0
137 148 149 0
-139 148 150 0
-139 148 149 0
137 148 150 0
-137 139 -148 0
-148 -149 -150 0
-140 149 -259 -260 0
-149 259 0
-149 260 0
140 -149 0
150 -261 -269 0
150 261 269 0
-150 261 -269 0
-150 -261 269 0
-134 -150 151 0
-149 151 -152 0
-134 -149 151 0
-150 151 -152 0
149 150 -151 0
134 -151 152 0
152 153 -251 0
152 153 259 0
-152 -153 0
-152 251 -259 0
153 252 -260 0
153 -252 260 0
-153 -252 -260 0
-153 252 260 0
138 154 -155 157 158 0
-138 154 155 157 158 0
-154 -157 0
138 -154 155 0
-154 -158 0
-138 -154 -155 0
155 156 -235 0
155 156 243 0
-155 -156 0
-155 235 -243 0
156 236 -244 0
156 -236 244 0
-156 -236 -244 0
-156 236 244 0
142 -143 157 0
-142 -157 0
143 -157 0
-130 158 -159 0
130 -158 0
-158 159 0
145 159 -243 0
145 159 251 0
-145 -159 0
-159 243 -251 0
160 161 163 164 240 0
160 161 -163 164 -240 0
-160 -161 0
-160 163 -240 0
-160 -164 0
-160 -163 240 0
161 162 234 -242 0
161 162 -234 242 0
-161 -162 0
-161 234 242 0
-161 -234 -242 0
-137 162 -233 0
-162 233 0
137 -162 0
139 163 -232 0
138 139 163 0
-139 -163 0
-138 -163 232 0
164 165 -256 0
-164 256 0
-164 -165 0
135 165 -248 0
134 135 165 0
-135 -165 0
-134 -165 248 0
162 166 -168 -180 0
166 167 -168 -180 0
-166 180 0
-166 168 0
-162 -166 -167 0
167 -234 -242 0
167 234 242 0
-167 234 -242 0
-167 -234 242 0
153 168 169 -170 -172 0
-153 168 -169 -170 -172 0
-168 172 0
-153 -168 169 0
-168 170 0
153 -168 -169 0
169 -251 259 0
-169 251 0
-169 -259 0
170 171 -243 0
-156 170 171 0
170 171 235 0
-170 -171 0
156 -170 -235 243 0
171 238 -247 0
171 -238 -263 0
171 -238 -254 0
171 247 254 0
-171 238 247 -254 0
-171 -238 -247 254 263 0
172 -173 -176 -178 -179 0
-172 179 0
-172 173 0
-172 178 0
-172 176 0
173 -174 175 262 271 0
173 -174 175 -262 -271 0
-173 -175 0
-173 -262 271 0
-173 174 0
-173 262 -271 0
174 -231 238 -255 262 0
174 231 -238 255 -262 0
174 -231 238 255 -262 0
174 231 -238 -255 262 0
-174 -231 -238 0
-174 231 238 0
-174 255 262 0
-174 -255 -262 0
175 263 270 0
175 -254 263 0
-175 -263 0
-175 254 -270 0
176 -177 270 0
176 -177 263 0
-176 177 0
-176 -263 -270 0
177 224 225 226 227 0
-177 -227 0
-177 -226 0
-177 -224 0
-177 -225 0
178 239 -246 -255 0
-178 255 0
-178 246 0
-178 -239 0
179 228 229 230 231 0
-179 -231 0
-179 -230 0
-179 -228 0
-179 -229 0
-147 156 180 -182 0
147 180 -181 182 0
147 156 180 182 0
-147 180 -181 -182 0
147 -180 -182 0
-147 -180 182 0
-156 -180 181 0
181 -235 243 0
-181 235 0
-181 -243 0
182 -259 267 0
-182 259 0
-182 -267 0
183 -186 -191 -245 0
183 -184 -186 -191 0
-183 191 0
-183 186 0
-183 184 245 0
184 -185 -237 0
184 185 237 0
-184 -185 237 0
-184 185 -237 0
-138 185 -235 -236 0
-185 235 0
-185 236 0
138 -185 0
186 187 189 -232 0
186 -187 189 232 0
186 187 -232 261 0
186 -187 232 261 0
-186 -187 -232 0
-186 187 232 0
-186 -189 -261 0
187 -188 224 0
187 188 -224 0
-187 -188 -224 0
-187 188 224 0
188 230 -231 0
188 -230 231 0
-188 -230 -231 0
-188 230 231 0
189 -190 -253 0
189 190 253 0
-189 -190 253 0
-189 190 -253 0
-134 190 -251 -252 0
-190 251 0
-190 252 0
134 -190 0
191 -192 -194 245 0
184 191 -192 -194 0
-191 194 0
-191 192 0
-184 -191 -245 0
-135 192 -193 0
133 192 -193 0
-192 193 0
-133 135 -192 0
-130 152 193 0
134 -159 193 0
152 -159 193 0
-130 134 193 0
-134 -152 -193 0
130 159 -193 0
194 195 235 -261 0
-189 194 -195 -235 0
194 -195 -235 -261 0
-189 194 195 235 0
-194 -195 235 0
-194 195 -235 0
189 -194 261 0
-188 195 227 0
188 195 -227 0
-188 -195 -227 0
188 -195 227 0
196 -197 202 237 0
196 -197 -202 -237 0
-196 197 0
-196 202 -237 0
-196 -202 237 0
197 198 -200 -234 253 0
197 -198 -200 234 253 0
197 -198 200 234 -253 0
197 198 200 -234 -253 0
-197 -198 -234 0
-197 198 234 0
-197 200 253 0
-197 -200 -253 0
198 -199 -226 0
198 199 226 0
-198 -199 226 0
-198 199 -226 0
188 199 -224 -225 0
-199 224 0
-199 225 0
-188 -199 0
200 -201 -245 0
200 201 245 0
-200 -201 245 0
-200 201 -245 0
-130 201 -243 -244 0
-201 243 0
-201 244 0
130 -201 0
202 -203 229 0
202 203 -229 0
-202 -203 -229 0
-202 203 229 0
203 -204 -228 0
-203 228 0
-203 204 0
-188 204 -227 0
-204 227 0
188 -204 0
205 -206 -208 -213 250 0
205 206 -208 -213 -250 0
-205 213 0
-205 206 250 0
-205 208 0
-205 -206 -250 0
206 -207 -242 0
206 207 242 0
-206 -207 242 0
-206 207 -242 0
-129 207 -241 0
-207 241 0
129 -207 0
208 209 211 -233 0
208 -209 211 233 0
208 209 -233 258 0
208 -209 233 258 0
-208 -209 -233 0
-208 209 233 0
-208 -211 -258 0
209 -210 -225 0
209 210 225 0
-209 -210 225 0
-209 210 -225 0
188 210 -224 0
-210 224 0
-188 -210 0
211 -212 -250 0
211 212 250 0
-211 -212 250 0
-211 212 -250 0
-133 212 -249 0
-212 249 0
133 -212 0
213 -214 -222 223 -236 0
213 -214 222 223 236 0
-213 -223 0
-213 222 -236 0
-213 214 0
-213 -222 236 0
214 215 216 -218 264 0
214 -215 216 -218 -264 0
-214 -216 0
-214 -215 264 0
-214 218 0
-214 215 -264 0
143 215 -256 0
140 143 215 0
-143 -215 0
-140 -215 256 0
216 217 258 -266 0
216 217 -258 266 0
-216 -217 0
-216 258 266 0
-216 -258 -266 0
-142 217 -257 0
-217 257 0
142 -217 0
218 219 220 221 248 0
218 219 -220 221 -248 0
-218 -219 0
-218 220 -248 0
-218 -221 0
-218 -220 248 0
-165 219 256 0
-219 -256 0
165 -219 0
131 220 -240 0
130 131 220 0
-131 -220 0
-130 -220 240 0
-217 221 -258 -266 0
-217 221 258 266 0
217 -221 0
-221 -258 266 0
-221 258 -266 0
-204 222 228 0
204 222 -228 0
-204 -222 -228 0
204 -222 228 0
211 223 258 0
-223 -258 0
-211 -223 0
1 2 0
-1 -2 0
312 0

